(set-logic HORN)
(set-info :source |
    Benchmark: C_VC
    Output by Princess (http://www.philipp.ruemmer.org/princess.shtml)
|)
(set-info :status sat)
(declare-heap Heap Addr HeapObject
 defObj
 ((HeapObject 0)) (
  (
   (O_Int (getInt Int))
   (O_UInt (getUInt Int))
   (O_Addr (getAddr Addr))
   (defObj)
  )
))
(declare-fun inv_main10 (Heap AddrRange AddrRange Int Int) Bool)
(declare-fun inv_main12 (Heap AddrRange AddrRange Int Int) Bool)
(declare-fun inv_main16 (Heap AddrRange AddrRange Int Int Int) Bool)
(declare-fun inv_main17 (Heap AddrRange AddrRange Int Int) Bool)
(declare-fun inv_main19 (Heap AddrRange AddrRange Int Int) Bool)
(declare-fun inv_main6 (Heap AddrRange AddrRange Int Int) Bool)
(declare-fun inv_main7 (Heap AddrRange AddrRange Int Int) Bool)
(assert (forall ((var0 Int) (var1 Int) (var2 AddrRange) (var3 AddrRange) (var4 Int) (var5 Heap) (var6 AddrRange) (var7 Int) (var8 Heap) (var9 Heap)) (or (not (and (and (and (and (= var9 emptyHeap) (and (= var8 (newBatchHeap (batchAlloc emptyHeap (O_Int var7) 100000))) (= var6 (newAddrRange (batchAlloc emptyHeap (O_Int var7) 100000))))) (and (and (= var5 (newBatchHeap (batchAlloc emptyHeap (O_Int var4) 100000))) (= var3 var6)) (= var2 (newAddrRange (batchAlloc emptyHeap (O_Int var4) 100000))))) (= var1 0)) (= var0 0))) (inv_main6 var5 var3 var2 var1 var0))))
(assert (forall ((var0 Int) (var1 Int) (var2 AddrRange) (var3 AddrRange) (var4 Heap)) (or (not (and (inv_main6 var4 var3 var2 var1 var0) (not (<= 0 (+ (+ 100000 (* (- 1) var0)) (- 1)))))) (inv_main7 var4 var3 var2 var1 var0))))
(assert (forall ((var0 Int) (var1 Int) (var2 Int) (var3 AddrRange) (var4 AddrRange) (var5 Heap) (var6 Int) (var7 Int) (var8 Int) (var9 AddrRange) (var10 AddrRange) (var11 Heap)) (or (not (and (inv_main16 var11 var10 var9 var8 var7 var6) (and (and (and (is-O_Int (read var11 (nthAddrRange var9 var8))) (is-O_Int (read var11 (nthAddrRange var9 var8)))) (and (and (and (and (= var5 (write var11 (nthAddrRange var9 var8) (O_Int var6))) (= var4 var10)) (= var3 var9)) (= var2 var8)) (= var1 var7))) (= var0 (+ var2 1))))) (inv_main7 var5 var4 var3 var0 var1))))
(assert (forall ((var0 Int) (var1 Int) (var2 Int) (var3 AddrRange) (var4 AddrRange) (var5 Heap)) (or (not (and (inv_main12 var5 var4 var3 var2 var1) (and (is-O_Int (read var5 (nthAddrRange var4 var2))) (= var0 (getInt (read var5 (nthAddrRange var4 var2))))))) (inv_main16 var5 var4 var3 var2 var1 var0))))
(assert (forall ((var0 Int) (var1 Int) (var2 Int) (var3 AddrRange) (var4 AddrRange) (var5 Int) (var6 Heap) (var7 Int) (var8 Int) (var9 AddrRange) (var10 AddrRange) (var11 Heap)) (or (not (and (inv_main10 var11 var10 var9 var8 var7) (and (and (and (is-O_Int (read var11 (nthAddrRange var10 var7))) (is-O_Int (read var11 (nthAddrRange var10 var7)))) (and (and (and (and (= var6 (write var11 (nthAddrRange var10 var7) (O_Int var5))) (= var4 var10)) (= var3 var9)) (= var2 var8)) (= var1 var7))) (= var0 (+ var1 1))))) (inv_main6 var6 var4 var3 var2 var0))))
(assert (forall ((var0 Int) (var1 Int) (var2 AddrRange) (var3 AddrRange) (var4 Heap) (var5 Int) (var6 Int) (var7 Int) (var8 AddrRange) (var9 AddrRange) (var10 Heap) (var11 Int) (var12 Int) (var13 Int) (var14 AddrRange) (var15 AddrRange) (var16 Heap)) (or (not (and (inv_main17 var16 var15 var14 var13 var12) (and (and (not (= var11 0)) (and (and (<= 0 (+ (+ 100000 (* (- 1) var13)) (- 1))) (is-O_Int (read var16 (nthAddrRange var15 var13)))) (and (and (and (and (and (= var10 var16) (= var9 var15)) (= var8 var14)) (= var7 var13)) (= var6 var12)) (= var5 (getInt (read var16 (nthAddrRange var15 var13))))))) (and (and (and (and (and (= var4 var10) (= var3 var9)) (= var2 var8)) (= var1 var7)) (= var0 var6)) (or (and (not (= var5 0)) (= var11 1)) (and (= var5 0) (= var11 0))))))) (inv_main19 var4 var3 var2 var1 var0))))
(assert (forall ((var0 Int) (var1 Int) (var2 AddrRange) (var3 AddrRange) (var4 Heap) (var5 Int) (var6 Int) (var7 Int) (var8 AddrRange) (var9 AddrRange) (var10 Heap) (var11 Int) (var12 Int) (var13 Int) (var14 AddrRange) (var15 AddrRange) (var16 Heap)) (or (not (and (inv_main7 var16 var15 var14 var13 var12) (and (and (not (= var11 0)) (and (and (<= 0 (+ (+ 100000 (* (- 1) var13)) (- 1))) (is-O_Int (read var16 (nthAddrRange var15 var13)))) (and (and (and (and (and (= var10 var16) (= var9 var15)) (= var8 var14)) (= var7 var13)) (= var6 var12)) (= var5 (getInt (read var16 (nthAddrRange var15 var13))))))) (and (and (and (and (and (= var4 var10) (= var3 var9)) (= var2 var8)) (= var1 var7)) (= var0 var6)) (or (and (not (= var5 0)) (= var11 1)) (and (= var5 0) (= var11 0))))))) (inv_main12 var4 var3 var2 var1 var0))))
(assert (forall ((var0 Int) (var1 Int) (var2 AddrRange) (var3 AddrRange) (var4 Heap)) (or (not (and (inv_main6 var4 var3 var2 var1 var0) (<= 0 (+ (+ 100000 (* (- 1) var0)) (- 1))))) (inv_main10 var4 var3 var2 var1 var0))))
(assert (forall ((var0 Int) (var1 Int) (var2 Int) (var3 AddrRange) (var4 AddrRange) (var5 Heap)) (or (not (and (inv_main7 var5 var4 var3 var2 var1) (and (not (<= 0 (+ (+ 100000 (* (- 1) var2)) (- 1)))) (= var0 0)))) (inv_main17 var5 var4 var3 var0 var1))))
(assert (forall ((var0 Int) (var1 Int) (var2 Int) (var3 AddrRange) (var4 AddrRange) (var5 Heap) (var6 Int) (var7 Int) (var8 Int) (var9 AddrRange) (var10 AddrRange) (var11 Heap) (var12 Int) (var13 Int) (var14 Int) (var15 AddrRange) (var16 AddrRange) (var17 Heap)) (or (not (and (inv_main7 var17 var16 var15 var14 var13) (and (and (and (= var12 0) (and (and (<= 0 (+ (+ 100000 (* (- 1) var14)) (- 1))) (is-O_Int (read var17 (nthAddrRange var16 var14)))) (and (and (and (and (and (= var11 var17) (= var10 var16)) (= var9 var15)) (= var8 var14)) (= var7 var13)) (= var6 (getInt (read var17 (nthAddrRange var16 var14))))))) (and (and (and (and (and (= var5 var11) (= var4 var10)) (= var3 var9)) (= var2 var8)) (= var1 var7)) (or (and (not (= var6 0)) (= var12 1)) (and (= var6 0) (= var12 0))))) (= var0 0)))) (inv_main17 var5 var4 var3 var0 var1))))
(assert (forall ((var0 Int) (var1 Int) (var2 Int) (var3 AddrRange) (var4 AddrRange) (var5 Heap)) (or (not (and (inv_main19 var5 var4 var3 var2 var1) (and (and (is-O_Int (read var5 (nthAddrRange var3 var2))) (is-O_Int (read var5 (nthAddrRange var4 var2)))) (= var0 (+ var2 1))))) (inv_main17 var5 var4 var3 var0 var1))))
(assert (forall ((var0 Int) (var1 Int) (var2 AddrRange) (var3 AddrRange) (var4 Heap)) (not (and (inv_main10 var4 var3 var2 var1 var0) (not (is-O_Int (read var4 (nthAddrRange var3 var0))))))))
(assert (forall ((var0 Int) (var1 Int) (var2 AddrRange) (var3 AddrRange) (var4 Heap)) (not (and (inv_main10 var4 var3 var2 var1 var0) (and (is-O_Int (read var4 (nthAddrRange var3 var0))) (not (within var3 (nthAddrRange var3 var0))))))))
(assert (forall ((var0 Int) (var1 Int) (var2 AddrRange) (var3 AddrRange) (var4 Heap)) (not (and (inv_main10 var4 var3 var2 var1 var0) (and (is-O_Int (read var4 (nthAddrRange var3 var0))) (not (is-O_Int (read var4 (nthAddrRange var3 var0)))))))))
(assert (forall ((var0 Int) (var1 Int) (var2 AddrRange) (var3 AddrRange) (var4 Heap)) (not (and (inv_main7 var4 var3 var2 var1 var0) (and (<= 0 (+ (+ 100000 (* (- 1) var1)) (- 1))) (not (is-O_Int (read var4 (nthAddrRange var3 var1)))))))))
(assert (forall ((var0 Int) (var1 Int) (var2 AddrRange) (var3 AddrRange) (var4 Heap)) (not (and (inv_main7 var4 var3 var2 var1 var0) (and (and (<= 0 (+ (+ 100000 (* (- 1) var1)) (- 1))) (is-O_Int (read var4 (nthAddrRange var3 var1)))) (not (within var3 (nthAddrRange var3 var1))))))))
(assert (forall ((var0 Int) (var1 Int) (var2 AddrRange) (var3 AddrRange) (var4 Heap)) (not (and (inv_main12 var4 var3 var2 var1 var0) (not (is-O_Int (read var4 (nthAddrRange var3 var1))))))))
(assert (forall ((var0 Int) (var1 Int) (var2 AddrRange) (var3 AddrRange) (var4 Heap)) (not (and (inv_main12 var4 var3 var2 var1 var0) (and (is-O_Int (read var4 (nthAddrRange var3 var1))) (not (within var3 (nthAddrRange var3 var1))))))))
(assert (forall ((var0 Int) (var1 Int) (var2 Int) (var3 AddrRange) (var4 AddrRange) (var5 Heap)) (not (and (inv_main16 var5 var4 var3 var2 var1 var0) (not (is-O_Int (read var5 (nthAddrRange var3 var2))))))))
(assert (forall ((var0 Int) (var1 Int) (var2 Int) (var3 AddrRange) (var4 AddrRange) (var5 Heap)) (not (and (inv_main16 var5 var4 var3 var2 var1 var0) (and (is-O_Int (read var5 (nthAddrRange var3 var2))) (not (within var3 (nthAddrRange var3 var2))))))))
(assert (forall ((var0 Int) (var1 Int) (var2 Int) (var3 AddrRange) (var4 AddrRange) (var5 Heap)) (not (and (inv_main16 var5 var4 var3 var2 var1 var0) (and (is-O_Int (read var5 (nthAddrRange var3 var2))) (not (is-O_Int (read var5 (nthAddrRange var3 var2)))))))))
(assert (forall ((var0 Int) (var1 Int) (var2 AddrRange) (var3 AddrRange) (var4 Heap)) (not (and (inv_main17 var4 var3 var2 var1 var0) (and (<= 0 (+ (+ 100000 (* (- 1) var1)) (- 1))) (not (is-O_Int (read var4 (nthAddrRange var3 var1)))))))))
(assert (forall ((var0 Int) (var1 Int) (var2 AddrRange) (var3 AddrRange) (var4 Heap)) (not (and (inv_main17 var4 var3 var2 var1 var0) (and (and (<= 0 (+ (+ 100000 (* (- 1) var1)) (- 1))) (is-O_Int (read var4 (nthAddrRange var3 var1)))) (not (within var3 (nthAddrRange var3 var1))))))))
(assert (forall ((var0 Int) (var1 Int) (var2 AddrRange) (var3 AddrRange) (var4 Heap)) (not (and (inv_main19 var4 var3 var2 var1 var0) (not (is-O_Int (read var4 (nthAddrRange var2 var1))))))))
(assert (forall ((var0 Int) (var1 Int) (var2 AddrRange) (var3 AddrRange) (var4 Heap)) (not (and (inv_main19 var4 var3 var2 var1 var0) (not (within var2 (nthAddrRange var2 var1)))))))
(assert (forall ((var0 Int) (var1 Int) (var2 AddrRange) (var3 AddrRange) (var4 Heap)) (not (and (inv_main19 var4 var3 var2 var1 var0) (not (is-O_Int (read var4 (nthAddrRange var3 var1))))))))
(assert (forall ((var0 Int) (var1 Int) (var2 AddrRange) (var3 AddrRange) (var4 Heap)) (not (and (inv_main19 var4 var3 var2 var1 var0) (not (within var3 (nthAddrRange var3 var1)))))))
(assert (forall ((var0 Int) (var1 Int) (var2 AddrRange) (var3 AddrRange) (var4 Heap)) (not (and (inv_main19 var4 var3 var2 var1 var0) (not (is-O_Int (read var4 (nthAddrRange var2 var1))))))))
(assert (forall ((var0 Int) (var1 Int) (var2 AddrRange) (var3 AddrRange) (var4 Heap)) (not (and (inv_main19 var4 var3 var2 var1 var0) (and (is-O_Int (read var4 (nthAddrRange var2 var1))) (not (within var2 (nthAddrRange var2 var1))))))))
(assert (forall ((var0 Int) (var1 Int) (var2 AddrRange) (var3 AddrRange) (var4 Heap)) (not (and (inv_main19 var4 var3 var2 var1 var0) (and (is-O_Int (read var4 (nthAddrRange var2 var1))) (not (is-O_Int (read var4 (nthAddrRange var3 var1)))))))))
(assert (forall ((var0 Int) (var1 Int) (var2 AddrRange) (var3 AddrRange) (var4 Heap)) (not (and (inv_main19 var4 var3 var2 var1 var0) (and (and (is-O_Int (read var4 (nthAddrRange var2 var1))) (is-O_Int (read var4 (nthAddrRange var3 var1)))) (not (within var3 (nthAddrRange var3 var1))))))))
(assert (forall ((var0 Int) (var1 Int) (var2 AddrRange) (var3 AddrRange) (var4 Heap)) (not (and (inv_main19 var4 var3 var2 var1 var0) (and (and (is-O_Int (read var4 (nthAddrRange var2 var1))) (is-O_Int (read var4 (nthAddrRange var3 var1)))) (not (= (getInt (read var4 (nthAddrRange var2 var1))) (getInt (read var4 (nthAddrRange var3 var1))))))))))
(check-sat)
